p cnf 42 435
1 2 3 4 5 6 7 8 9 10 11 12 13 14 0
15 16 17 18 19 20 21 22 23 24 25 26 27 28 0
29 30 31 32 33 34 35 36 37 38 39 40 41 42 0
-1 -15 0
-2 -16 0
-3 -17 0
-4 -18 0
-5 -19 0
-6 -20 0
-7 -21 0
-8 -22 0
-9 -23 0
-10 -24 0
-11 -25 0
-12 -26 0
-13 -27 0
-14 -28 0
-1 -29 0
-2 -30 0
-3 -31 0
-4 -32 0
-5 -33 0
-6 -34 0
-7 -35 0
-8 -36 0
-9 -37 0
-10 -38 0
-11 -39 0
-12 -40 0
-13 -41 0
-14 -42 0
-15 -29 0
-16 -30 0
-17 -31 0
-18 -32 0
-19 -33 0
-20 -34 0
-21 -35 0
-22 -36 0
-23 -37 0
-24 -38 0
-25 -39 0
-26 -40 0
-27 -41 0
-28 -42 0
-1 -18 0
-1 -20 0
-1 -23 0
-1 -26 0
-1 -27 0
-2 -15 0
-2 -21 0
-2 -24 0
-2 -26 0
-2 -27 0
-3 -15 0
-3 -16 0
-3 -20 0
-3 -21 0
-3 -22 0
-3 -26 0
-3 -27 0
-4 -15 0
-4 -16 0
-4 -17 0
-4 -19 0
-4 -25 0
-4 -28 0
-5 -15 0
-5 -16 0
-5 -17 0
-5 -18 0
-5 -21 0
-5 -24 0
-5 -27 0
-6 -15 0
-6 -16 0
-6 -17 0
-6 -18 0
-6 -19 0
-6 -21 0
-6 -22 0
-6 -23 0
-6 -24 0
-6 -26 0
-7 -15 0
-7 -16 0
-7 -17 0
-7 -18 0
-7 -19 0
-7 -20 0
-7 -22 0
-7 -23 0
-7 -24 0
-7 -25 0
-7 -27 0
-8 -15 0
-8 -16 0
-8 -17 0
-8 -18 0
-8 -19 0
-8 -20 0
-8 -21 0
-8 -24 0
-8 -27 0
-8 -28 0
-9 -15 0
-9 -16 0
-9 -17 0
-9 -18 0
-9 -19 0
-9 -20 0
-9 -21 0
-9 -22 0
-9 -25 0
-9 -27 0
-10 -15 0
-10 -16 0
-10 -17 0
-10 -18 0
-10 -19 0
-10 -20 0
-10 -21 0
-10 -22 0
-10 -23 0
-10 -25 0
-11 -15 0
-11 -16 0
-11 -17 0
-11 -18 0
-11 -19 0
-11 -20 0
-11 -21 0
-11 -22 0
-11 -23 0
-11 -24 0
-11 -26 0
-11 -28 0
-12 -15 0
-12 -16 0
-12 -17 0
-12 -18 0
-12 -19 0
-12 -20 0
-12 -21 0
-12 -22 0
-12 -23 0
-12 -24 0
-12 -25 0
-13 -15 0
-13 -16 0
-13 -17 0
-13 -18 0
-13 -19 0
-13 -20 0
-13 -21 0
-13 -22 0
-13 -23 0
-13 -24 0
-13 -25 0
-13 -26 0
-13 -28 0
-14 -15 0
-14 -16 0
-14 -17 0
-14 -18 0
-14 -19 0
-14 -20 0
-14 -21 0
-14 -22 0
-14 -23 0
-14 -24 0
-14 -25 0
-14 -26 0
-14 -27 0
-1 -32 0
-1 -34 0
-1 -37 0
-1 -40 0
-1 -41 0
-2 -29 0
-2 -35 0
-2 -38 0
-2 -40 0
-2 -41 0
-3 -29 0
-3 -30 0
-3 -34 0
-3 -35 0
-3 -36 0
-3 -40 0
-3 -41 0
-4 -29 0
-4 -30 0
-4 -31 0
-4 -33 0
-4 -39 0
-4 -42 0
-5 -29 0
-5 -30 0
-5 -31 0
-5 -32 0
-5 -35 0
-5 -38 0
-5 -41 0
-6 -29 0
-6 -30 0
-6 -31 0
-6 -32 0
-6 -33 0
-6 -35 0
-6 -36 0
-6 -37 0
-6 -38 0
-6 -40 0
-7 -29 0
-7 -30 0
-7 -31 0
-7 -32 0
-7 -33 0
-7 -34 0
-7 -36 0
-7 -37 0
-7 -38 0
-7 -39 0
-7 -41 0
-8 -29 0
-8 -30 0
-8 -31 0
-8 -32 0
-8 -33 0
-8 -34 0
-8 -35 0
-8 -38 0
-8 -41 0
-8 -42 0
-9 -29 0
-9 -30 0
-9 -31 0
-9 -32 0
-9 -33 0
-9 -34 0
-9 -35 0
-9 -36 0
-9 -39 0
-9 -41 0
-10 -29 0
-10 -30 0
-10 -31 0
-10 -32 0
-10 -33 0
-10 -34 0
-10 -35 0
-10 -36 0
-10 -37 0
-10 -39 0
-11 -29 0
-11 -30 0
-11 -31 0
-11 -32 0
-11 -33 0
-11 -34 0
-11 -35 0
-11 -36 0
-11 -37 0
-11 -38 0
-11 -40 0
-11 -42 0
-12 -29 0
-12 -30 0
-12 -31 0
-12 -32 0
-12 -33 0
-12 -34 0
-12 -35 0
-12 -36 0
-12 -37 0
-12 -38 0
-12 -39 0
-13 -29 0
-13 -30 0
-13 -31 0
-13 -32 0
-13 -33 0
-13 -34 0
-13 -35 0
-13 -36 0
-13 -37 0
-13 -38 0
-13 -39 0
-13 -40 0
-13 -42 0
-14 -29 0
-14 -30 0
-14 -31 0
-14 -32 0
-14 -33 0
-14 -34 0
-14 -35 0
-14 -36 0
-14 -37 0
-14 -38 0
-14 -39 0
-14 -40 0
-14 -41 0
-15 -32 0
-15 -34 0
-15 -37 0
-15 -40 0
-15 -41 0
-16 -29 0
-16 -35 0
-16 -38 0
-16 -40 0
-16 -41 0
-17 -29 0
-17 -30 0
-17 -34 0
-17 -35 0
-17 -36 0
-17 -40 0
-17 -41 0
-18 -29 0
-18 -30 0
-18 -31 0
-18 -33 0
-18 -39 0
-18 -42 0
-19 -29 0
-19 -30 0
-19 -31 0
-19 -32 0
-19 -35 0
-19 -38 0
-19 -41 0
-20 -29 0
-20 -30 0
-20 -31 0
-20 -32 0
-20 -33 0
-20 -35 0
-20 -36 0
-20 -37 0
-20 -38 0
-20 -40 0
-21 -29 0
-21 -30 0
-21 -31 0
-21 -32 0
-21 -33 0
-21 -34 0
-21 -36 0
-21 -37 0
-21 -38 0
-21 -39 0
-21 -41 0
-22 -29 0
-22 -30 0
-22 -31 0
-22 -32 0
-22 -33 0
-22 -34 0
-22 -35 0
-22 -38 0
-22 -41 0
-22 -42 0
-23 -29 0
-23 -30 0
-23 -31 0
-23 -32 0
-23 -33 0
-23 -34 0
-23 -35 0
-23 -36 0
-23 -39 0
-23 -41 0
-24 -29 0
-24 -30 0
-24 -31 0
-24 -32 0
-24 -33 0
-24 -34 0
-24 -35 0
-24 -36 0
-24 -37 0
-24 -39 0
-25 -29 0
-25 -30 0
-25 -31 0
-25 -32 0
-25 -33 0
-25 -34 0
-25 -35 0
-25 -36 0
-25 -37 0
-25 -38 0
-25 -40 0
-25 -42 0
-26 -29 0
-26 -30 0
-26 -31 0
-26 -32 0
-26 -33 0
-26 -34 0
-26 -35 0
-26 -36 0
-26 -37 0
-26 -38 0
-26 -39 0
-27 -29 0
-27 -30 0
-27 -31 0
-27 -32 0
-27 -33 0
-27 -34 0
-27 -35 0
-27 -36 0
-27 -37 0
-27 -38 0
-27 -39 0
-27 -40 0
-27 -42 0
-28 -29 0
-28 -30 0
-28 -31 0
-28 -32 0
-28 -33 0
-28 -34 0
-28 -35 0
-28 -36 0
-28 -37 0
-28 -38 0
-28 -39 0
-28 -40 0
-28 -41 0
